p cnf 17 34
8 -11 16 0
4 15 -17 0
8 -9 11 0
-6 -13 -15 0
-6 9 -16 0
-5 -6 16 0
4 -6 -15 0
6 13 -16 0
2 12 -15 0
6 11 16 0
-9 -12 16 0
3 -8 14 0
9 10 11 0
-2 -3 10 0
-1 -2 8 0
-3 8 -15 0
4 8 -10 0
10 -11 -12 0
2 8 -14 0
7 14 15 0
4 -8 10 0
3 6 -10 0
4 7 -8 0
-7 -15 -16 0
9 11 -15 0
-1 -11 -16 0
-5 8 -17 0
-5 -7 -9 0
-3 -10 -12 0
2 5 15 0
4 6 14 0
9 -12 -17 0
-7 9 -11 0
10 -13 14 0
